

min: 3.00xi_1   + 4.24xi_2  + 6.32xi_3  + 8.25xi_4  + 6.00xi_6  + 10.00xi_7 + 10.00xi_9 + 10.20xi_10 +  11.18xi_11 +  12.81xi_12 + 14.42xi_f
     + 3x1_2    + 6.08x1_3  + 8.06x1_4  + 3.00x1_6  + 8.54x1_7  + 7x1_9     + 7.28x1_10 + 8.60x1_11  + 10.63x1_12  + 12.04x1_f
     + 3.16x2_3 + 5.10x2_4  + 4.24x2_6  + 5.83x2_7  + 7.62x2_9  + 7.07x2_10 + 7.28x2_11 + 8.60x2_12  + 10.30x2_f
     + 2x3_4    + 7.21x3_6  + 4.47x3_7  + 10x3_9    + 8.94x3_10 + 8.06x3_11 + 8.25x3_12 + 10.20x3_f
     + 8.94x4_6 + 4x4_7     + 11.31x4_9 + 10x4_10   + 8.54x4_11 + 8x4_12    + 10x4_f
     + 8x6_7    + 4x6_9     + 4.47x6_10 + 6.40x6_11 + 8.94x6_12 + 10x6_f
     + 8.94x7_9 + 7.21x7_10 + 5x7_11    + 4x7_12    + 6x7_f
     + 2x9_10   + 5x9_11    + 8x9_12    + 8.25x9_f
     + 3x10_11  + 6x10_12   + 6.32x10_f
     + 3x11_12  + 3.61x11_f
     + 2x12_f;
/* restrições */

vi:  xi_1   + xi_2  + xi_3  + xi_4  + xi_6  + xi_7  + xi_9  + xi_10 + xi_11  + xi_12  + xi_f  = 1;
v1:  xi_1   + x1_2  + x1_3  + x1_4  + x1_6  + x1_7  + x1_9  + x1_10 + x1_11  + x1_12  + x1_f  = 1;
v2:  xi_2   + x1_2  + x2_3  + x2_4  + x2_6  + x2_7  + x2_9  + x2_10 + x2_11  + x2_12  + x2_f  = 1;
v3:  xi_3   + x1_3  + x2_3  + x3_4  + x3_6  + x3_7  + x3_9  + x3_10 + x3_11  + x3_12  + x3_f  = 1;
v4:  xi_4   + x1_4  + x2_4  + x3_4  + x4_6  + x4_7  + x4_9  + x4_10 + x4_11  + x4_12  + x4_f  = 1;
v6:  xi_6   + x1_6  + x2_6  + x3_6  + x4_6  + x6_7  + x6_9  + x6_10 + x6_11  + x6_12  + x6_f  = 1;
v7:  xi_7   + x1_7  + x2_7  + x3_7  + x4_7  + x6_7  + x7_9  + x7_10 + x7_11  + x7_12  + x7_f  = 1;
v9:  xi_9   + x1_9  + x2_9  + x3_9  + x4_9  + x6_9  + x7_9  + x9_10 + x9_11  + x9_12  + x9_f  = 1;
v10: xi_10  + x1_10 + x2_10 + x3_10 + x4_10 + x6_10 + x7_10 + x9_10 + x10_11 + x10_12 + x10_f = 1;
v11: xi_11  + x1_11 + x2_11 + x3_11 + x4_11 + x6_11 + x7_11 + x9_11 + x10_11 + x11_12 + x11_f = 1;
v12: xi_12  + x1_12 + x2_12 + x3_12 + x4_12 + x6_12 + x7_12 + x9_12 + x10_12 + x11_12 + x12_f = 1;
vf:  xi_f   + x1_f  + x2_f  + x3_f  + x4_f  + x6_f  + x7_f  + x9_f  + x10_f  + x11_f  + x12_f = 1;

bin xi_1, xi_2, xi_3, xi_4, xi_6, xi_7, xi_9, xi_10, xi_11, xi_12, xi_f, x1_2, x1_3, x1_4, x1_6, x1_7, x1_9, x1_10, x1_11, x1_12, x1_f,
x2_3, x2_4, x2_6, x2_7, x2_9, x2_10, x2_11, x2_12, x2_f, x3_4, x3_6, x3_7, x3_9, x3_10, x3_11, x3_12, x3_f, x4_6, x4_7, x4_9, x4_10, x4_11,
x4_12, x4_f,  x6_7, x6_9, x6_10, x6_11, x6_12, x6_f, x7_9, x7_10, x7_11, x7_12, x7_f, x9_10, x9_11, x9_12, x9_f, x10_11, x10_12, x10_f,
x11_12, x11_f, x12_f;